data/arcade/kb/arcade-game.txt
Logical Symbols:
(ArcadeGame) ∧ (¬UseCases ∨ ArcadeGame) ∧ (¬ClassDiagram ∨ ArcadeGame) ∧ (¬ArcadeGame ∨ UseCases) ∧ (¬ArcadeGame ∨ ClassDiagram) ∧ (¬CheckPreviousBestScore ∨ UseCases) ∧ (¬SaveScore ∨ UseCases) ∧ (¬SaveGame ∨ UseCases) ∧ (¬ExitGame ∨ UseCases) ∧ (¬InstallGame ∨ UseCases) ∧ (¬UninstallGame ∨ UseCases) ∧ (¬ListGame ∨ UseCases) ∧ (¬PlayGame ∨ UseCases) ∧ (¬UseCases ∨ SaveGame) ∧ (¬UseCases ∨ ExitGame) ∧ (¬UseCases ∨ InstallGame) ∧ (¬UseCases ∨ UninstallGame) ∧ (¬UseCases ∨ ListGame) ∧ (¬UseCases ∨ PlayGame) ∧ (¬PlayGame_1 ∨ PlayGame) ∧ (¬Initialization ∨ PlayGame) ∧ (¬AnimationLoop ∨ PlayGame) ∧ (¬PlayGame ∨ PlayGame_1) ∧ (¬PlayGame ∨ Initialization) ∧ (¬PlayGame ∨ AnimationLoop) ∧ (¬PlayBrickles ∨ PlayGame_1) ∧ (¬PlayPong ∨ PlayGame_1) ∧ (¬PlayBowling ∨ PlayGame_1) ∧ (¬PlayGame_1 ∨ PlayBrickles ∨ PlayPong ∨ PlayBowling) ∧ (¬GameSprite ∨ ClassDiagram) ∧ (¬Pucksupply ∨ ClassDiagram) ∧ (¬Board ∨ ClassDiagram) ∧ (¬Menu ∨ ClassDiagram) ∧ (¬GameMenu ∨ ClassDiagram) ∧ (¬ClassDiagram ∨ GameSprite) ∧ (¬ClassDiagram ∨ Board) ∧ (¬ClassDiagram ∨ Menu) ∧ (¬ClassDiagram ∨ GameMenu) ∧ (¬SpritePair ∨ GameSprite) ∧ (¬Rectangle ∨ GameSprite) ∧ (¬GameSprite_3 ∨ GameSprite) ∧ (¬GameSprite ∨ Rectangle) ∧ (¬GameSprite ∨ GameSprite_3) ∧ (¬Size ∨ Rectangle) ∧ (¬Point ∨ Rectangle) ∧ (¬Rectangle ∨ Size) ∧ (¬Rectangle ∨ Point) ∧ (¬MovableSprite ∨ GameSprite_3) ∧ (¬StationarySprite ∨ GameSprite_3) ∧ (¬GameSprite_3 ∨ MovableSprite ∨ StationarySprite) ∧ (¬Velocity ∨ MovableSprite) ∧ (¬MovableSprite_2 ∨ MovableSprite) ∧ (¬MovableSprite ∨ Velocity) ∧ (¬MovableSprite ∨ MovableSprite_2) ∧ (¬Paddle ∨ MovableSprite_2) ∧ (¬Puck ∨ MovableSprite_2) ∧ (¬BowlingBall ∨ MovableSprite_2) ∧ (¬BowlingPin ∨ MovableSprite_2) ∧ (¬MovableSprite_2 ∨ Paddle ∨ Puck ∨ BowlingBall ∨ BowlingPin) ∧ (¬TopPaddle ∨ Paddle) ∧ (¬BottomPaddle ∨ Paddle) ∧ (¬Paddle ∨ TopPaddle ∨ BottomPaddle) ∧ (¬Wall ∨ StationarySprite) ∧ (¬StationarySprite_2 ∨ StationarySprite) ∧ (¬StationarySprite ∨ StationarySprite_2) ∧ (¬Leftpong ∨ Wall) ∧ (¬Rightpont ∨ Wall) ∧ (¬Leftbrickles ∨ Wall) ∧ (¬Rightbrickles ∨ Wall) ∧ (¬Wall ∨ Leftpong ∨ Rightpont ∨ Leftbrickles ∨ Rightbrickles) ∧ (¬Brick ∨ StationarySprite_2) ∧ (¬BrickPile ∨ StationarySprite_2) ∧ (¬Ceilingbrickles ∨ StationarySprite_2) ∧ (¬Floorbrickles ∨ StationarySprite_2) ∧ (¬Lane ∨ StationarySprite_2) ∧ (¬Gutter ∨ StationarySprite_2) ∧ (¬Edge ∨ StationarySprite_2) ∧ (¬EndofAlley ∨ StationarySprite_2) ∧ (¬RackofPins ∨ StationarySprite_2) ∧ (¬ScoreBoard ∨ StationarySprite_2) ∧ (¬Floorpong ∨ StationarySprite_2) ∧ (¬Ceilingpong ∨ StationarySprite_2) ∧ (¬DividingLine ∨ StationarySprite_2) ∧ (¬StationarySprite_2 ∨ Brick ∨ BrickPile ∨ Ceilingbrickles ∨ Floorbrickles ∨ Lane ∨ Gutter ∨ Edge ∨ EndofAlley ∨ RackofPins ∨ ScoreBoard ∨ Floorpong ∨ Ceilingpong ∨ DividingLine) ∧ (¬PongBoard ∨ Board) ∧ (¬BricklesBoard ∨ Board) ∧ (¬BowlingBoard ∨ Board) ∧ (¬Board ∨ PongBoard ∨ BricklesBoard ∨ BowlingBoard) ∧ (¬Pong ∨ Menu) ∧ (¬Brickles ∨ Menu) ∧ (¬Bowling ∨ Menu) ∧ (¬Menu ∨ Pong ∨ Brickles ∨ Bowling) ∧ (¬PongGameMenu ∨ GameMenu) ∧ (¬BricklesGameMenu ∨ GameMenu) ∧ (¬BowlingGameMenu ∨ GameMenu) ∧ (¬GameMenu ∨ PongGameMenu ∨ BricklesGameMenu ∨ BowlingGameMenu) ∧ (Brickles ∨ ¬PlayBrickles) ∧ (¬Brickles ∨ PlayBrickles) ∧ (¬PlayPong ∨ Pong) ∧ (PlayPong ∨ ¬Pong) ∧ (Bowling ∨ ¬PlayBowling) ∧ (¬Bowling ∨ PlayBowling) ∧ (Pong ∨ ¬TopPaddle) ∧ (¬BottomPaddle ∨ Pong) ∧ (¬Leftpong ∨ Pong) ∧ (Pong ∨ ¬Rightpont) ∧ (Pong ∨ ¬ScoreBoard) ∧ (¬Floorpong ∨ Pong) ∧ (¬Ceilingpong ∨ Pong) ∧ (¬DividingLine ∨ Pong) ∧ (Pong ∨ ¬PongBoard) ∧ (Pong ∨ ¬PongGameMenu) ∧ (Bowling ∨ ¬BowlingBoard) ∧ (Bowling ∨ ¬BowlingBall) ∧ (Bowling ∨ ¬BowlingPin) ∧ (Bowling ∨ ¬Lane) ∧ (Bowling ∨ ¬Gutter) ∧ (Bowling ∨ ¬Edge) ∧ (Bowling ∨ ¬EndofAlley) ∧ (Bowling ∨ ¬RackofPins) ∧ (Bowling ∨ ¬BowlingGameMenu) ∧ (Brickles ∨ ¬BricklesGameMenu) ∧ (Brickles ∨ ¬BricklesBoard) ∧ (Brickles ∨ ¬Leftbrickles) ∧ (Brickles ∨ ¬Rightbrickles) ∧ (¬BrickPile ∨ Brickles) ∧ (¬Brick ∨ Brickles) ∧ (Brickles ∨ ¬Ceilingbrickles) ∧ (Brickles ∨ ¬Floorbrickles) ∧ (Brickles ∨ ¬Pucksupply)

Textual Symbols:
(ArcadeGame) and (not UseCases or ArcadeGame) and (not ClassDiagram or ArcadeGame) and (not ArcadeGame or UseCases) and (not ArcadeGame or ClassDiagram) and (not CheckPreviousBestScore or UseCases) and (not SaveScore or UseCases) and (not SaveGame or UseCases) and (not ExitGame or UseCases) and (not InstallGame or UseCases) and (not UninstallGame or UseCases) and (not ListGame or UseCases) and (not PlayGame or UseCases) and (not UseCases or SaveGame) and (not UseCases or ExitGame) and (not UseCases or InstallGame) and (not UseCases or UninstallGame) and (not UseCases or ListGame) and (not UseCases or PlayGame) and (not PlayGame_1 or PlayGame) and (not Initialization or PlayGame) and (not AnimationLoop or PlayGame) and (not PlayGame or PlayGame_1) and (not PlayGame or Initialization) and (not PlayGame or AnimationLoop) and (not PlayBrickles or PlayGame_1) and (not PlayPong or PlayGame_1) and (not PlayBowling or PlayGame_1) and (not PlayGame_1 or PlayBrickles or PlayPong or PlayBowling) and (not GameSprite or ClassDiagram) and (not Pucksupply or ClassDiagram) and (not Board or ClassDiagram) and (not Menu or ClassDiagram) and (not GameMenu or ClassDiagram) and (not ClassDiagram or GameSprite) and (not ClassDiagram or Board) and (not ClassDiagram or Menu) and (not ClassDiagram or GameMenu) and (not SpritePair or GameSprite) and (not Rectangle or GameSprite) and (not GameSprite_3 or GameSprite) and (not GameSprite or Rectangle) and (not GameSprite or GameSprite_3) and (not Size or Rectangle) and (not Point or Rectangle) and (not Rectangle or Size) and (not Rectangle or Point) and (not MovableSprite or GameSprite_3) and (not StationarySprite or GameSprite_3) and (not GameSprite_3 or MovableSprite or StationarySprite) and (not Velocity or MovableSprite) and (not MovableSprite_2 or MovableSprite) and (not MovableSprite or Velocity) and (not MovableSprite or MovableSprite_2) and (not Paddle or MovableSprite_2) and (not Puck or MovableSprite_2) and (not BowlingBall or MovableSprite_2) and (not BowlingPin or MovableSprite_2) and (not MovableSprite_2 or Paddle or Puck or BowlingBall or BowlingPin) and (not TopPaddle or Paddle) and (not BottomPaddle or Paddle) and (not Paddle or TopPaddle or BottomPaddle) and (not Wall or StationarySprite) and (not StationarySprite_2 or StationarySprite) and (not StationarySprite or StationarySprite_2) and (not Leftpong or Wall) and (not Rightpont or Wall) and (not Leftbrickles or Wall) and (not Rightbrickles or Wall) and (not Wall or Leftpong or Rightpont or Leftbrickles or Rightbrickles) and (not Brick or StationarySprite_2) and (not BrickPile or StationarySprite_2) and (not Ceilingbrickles or StationarySprite_2) and (not Floorbrickles or StationarySprite_2) and (not Lane or StationarySprite_2) and (not Gutter or StationarySprite_2) and (not Edge or StationarySprite_2) and (not EndofAlley or StationarySprite_2) and (not RackofPins or StationarySprite_2) and (not ScoreBoard or StationarySprite_2) and (not Floorpong or StationarySprite_2) and (not Ceilingpong or StationarySprite_2) and (not DividingLine or StationarySprite_2) and (not StationarySprite_2 or Brick or BrickPile or Ceilingbrickles or Floorbrickles or Lane or Gutter or Edge or EndofAlley or RackofPins or ScoreBoard or Floorpong or Ceilingpong or DividingLine) and (not PongBoard or Board) and (not BricklesBoard or Board) and (not BowlingBoard or Board) and (not Board or PongBoard or BricklesBoard or BowlingBoard) and (not Pong or Menu) and (not Brickles or Menu) and (not Bowling or Menu) and (not Menu or Pong or Brickles or Bowling) and (not PongGameMenu or GameMenu) and (not BricklesGameMenu or GameMenu) and (not BowlingGameMenu or GameMenu) and (not GameMenu or PongGameMenu or BricklesGameMenu or BowlingGameMenu) and (Brickles or not PlayBrickles) and (not Brickles or PlayBrickles) and (not PlayPong or Pong) and (PlayPong or not Pong) and (Bowling or not PlayBowling) and (not Bowling or PlayBowling) and (Pong or not TopPaddle) and (not BottomPaddle or Pong) and (not Leftpong or Pong) and (Pong or not Rightpont) and (Pong or not ScoreBoard) and (not Floorpong or Pong) and (not Ceilingpong or Pong) and (not DividingLine or Pong) and (Pong or not PongBoard) and (Pong or not PongGameMenu) and (Bowling or not BowlingBoard) and (Bowling or not BowlingBall) and (Bowling or not BowlingPin) and (Bowling or not Lane) and (Bowling or not Gutter) and (Bowling or not Edge) and (Bowling or not EndofAlley) and (Bowling or not RackofPins) and (Bowling or not BowlingGameMenu) and (Brickles or not BricklesGameMenu) and (Brickles or not BricklesBoard) and (Brickles or not Leftbrickles) and (Brickles or not Rightbrickles) and (not BrickPile or Brickles) and (not Brick or Brickles) and (Brickles or not Ceilingbrickles) and (Brickles or not Floorbrickles) and (Brickles or not Pucksupply)

Java Symbols:
(ArcadeGame) && (!UseCases || ArcadeGame) && (!ClassDiagram || ArcadeGame) && (!ArcadeGame || UseCases) && (!ArcadeGame || ClassDiagram) && (!CheckPreviousBestScore || UseCases) && (!SaveScore || UseCases) && (!SaveGame || UseCases) && (!ExitGame || UseCases) && (!InstallGame || UseCases) && (!UninstallGame || UseCases) && (!ListGame || UseCases) && (!PlayGame || UseCases) && (!UseCases || SaveGame) && (!UseCases || ExitGame) && (!UseCases || InstallGame) && (!UseCases || UninstallGame) && (!UseCases || ListGame) && (!UseCases || PlayGame) && (!PlayGame_1 || PlayGame) && (!Initialization || PlayGame) && (!AnimationLoop || PlayGame) && (!PlayGame || PlayGame_1) && (!PlayGame || Initialization) && (!PlayGame || AnimationLoop) && (!PlayBrickles || PlayGame_1) && (!PlayPong || PlayGame_1) && (!PlayBowling || PlayGame_1) && (!PlayGame_1 || PlayBrickles || PlayPong || PlayBowling) && (!GameSprite || ClassDiagram) && (!Pucksupply || ClassDiagram) && (!Board || ClassDiagram) && (!Menu || ClassDiagram) && (!GameMenu || ClassDiagram) && (!ClassDiagram || GameSprite) && (!ClassDiagram || Board) && (!ClassDiagram || Menu) && (!ClassDiagram || GameMenu) && (!SpritePair || GameSprite) && (!Rectangle || GameSprite) && (!GameSprite_3 || GameSprite) && (!GameSprite || Rectangle) && (!GameSprite || GameSprite_3) && (!Size || Rectangle) && (!Point || Rectangle) && (!Rectangle || Size) && (!Rectangle || Point) && (!MovableSprite || GameSprite_3) && (!StationarySprite || GameSprite_3) && (!GameSprite_3 || MovableSprite || StationarySprite) && (!Velocity || MovableSprite) && (!MovableSprite_2 || MovableSprite) && (!MovableSprite || Velocity) && (!MovableSprite || MovableSprite_2) && (!Paddle || MovableSprite_2) && (!Puck || MovableSprite_2) && (!BowlingBall || MovableSprite_2) && (!BowlingPin || MovableSprite_2) && (!MovableSprite_2 || Paddle || Puck || BowlingBall || BowlingPin) && (!TopPaddle || Paddle) && (!BottomPaddle || Paddle) && (!Paddle || TopPaddle || BottomPaddle) && (!Wall || StationarySprite) && (!StationarySprite_2 || StationarySprite) && (!StationarySprite || StationarySprite_2) && (!Leftpong || Wall) && (!Rightpont || Wall) && (!Leftbrickles || Wall) && (!Rightbrickles || Wall) && (!Wall || Leftpong || Rightpont || Leftbrickles || Rightbrickles) && (!Brick || StationarySprite_2) && (!BrickPile || StationarySprite_2) && (!Ceilingbrickles || StationarySprite_2) && (!Floorbrickles || StationarySprite_2) && (!Lane || StationarySprite_2) && (!Gutter || StationarySprite_2) && (!Edge || StationarySprite_2) && (!EndofAlley || StationarySprite_2) && (!RackofPins || StationarySprite_2) && (!ScoreBoard || StationarySprite_2) && (!Floorpong || StationarySprite_2) && (!Ceilingpong || StationarySprite_2) && (!DividingLine || StationarySprite_2) && (!StationarySprite_2 || Brick || BrickPile || Ceilingbrickles || Floorbrickles || Lane || Gutter || Edge || EndofAlley || RackofPins || ScoreBoard || Floorpong || Ceilingpong || DividingLine) && (!PongBoard || Board) && (!BricklesBoard || Board) && (!BowlingBoard || Board) && (!Board || PongBoard || BricklesBoard || BowlingBoard) && (!Pong || Menu) && (!Brickles || Menu) && (!Bowling || Menu) && (!Menu || Pong || Brickles || Bowling) && (!PongGameMenu || GameMenu) && (!BricklesGameMenu || GameMenu) && (!BowlingGameMenu || GameMenu) && (!GameMenu || PongGameMenu || BricklesGameMenu || BowlingGameMenu) && (Brickles || !PlayBrickles) && (!Brickles || PlayBrickles) && (!PlayPong || Pong) && (PlayPong || !Pong) && (Bowling || !PlayBowling) && (!Bowling || PlayBowling) && (Pong || !TopPaddle) && (!BottomPaddle || Pong) && (!Leftpong || Pong) && (Pong || !Rightpont) && (Pong || !ScoreBoard) && (!Floorpong || Pong) && (!Ceilingpong || Pong) && (!DividingLine || Pong) && (Pong || !PongBoard) && (Pong || !PongGameMenu) && (Bowling || !BowlingBoard) && (Bowling || !BowlingBall) && (Bowling || !BowlingPin) && (Bowling || !Lane) && (Bowling || !Gutter) && (Bowling || !Edge) && (Bowling || !EndofAlley) && (Bowling || !RackofPins) && (Bowling || !BowlingGameMenu) && (Brickles || !BricklesGameMenu) && (Brickles || !BricklesBoard) && (Brickles || !Leftbrickles) && (Brickles || !Rightbrickles) && (!BrickPile || Brickles) && (!Brick || Brickles) && (Brickles || !Ceilingbrickles) && (Brickles || !Floorbrickles) && (Brickles || !Pucksupply)

Short Symbols:
(ArcadeGame) & (-UseCases | ArcadeGame) & (-ClassDiagram | ArcadeGame) & (-ArcadeGame | UseCases) & (-ArcadeGame | ClassDiagram) & (-CheckPreviousBestScore | UseCases) & (-SaveScore | UseCases) & (-SaveGame | UseCases) & (-ExitGame | UseCases) & (-InstallGame | UseCases) & (-UninstallGame | UseCases) & (-ListGame | UseCases) & (-PlayGame | UseCases) & (-UseCases | SaveGame) & (-UseCases | ExitGame) & (-UseCases | InstallGame) & (-UseCases | UninstallGame) & (-UseCases | ListGame) & (-UseCases | PlayGame) & (-PlayGame_1 | PlayGame) & (-Initialization | PlayGame) & (-AnimationLoop | PlayGame) & (-PlayGame | PlayGame_1) & (-PlayGame | Initialization) & (-PlayGame | AnimationLoop) & (-PlayBrickles | PlayGame_1) & (-PlayPong | PlayGame_1) & (-PlayBowling | PlayGame_1) & (-PlayGame_1 | PlayBrickles | PlayPong | PlayBowling) & (-GameSprite | ClassDiagram) & (-Pucksupply | ClassDiagram) & (-Board | ClassDiagram) & (-Menu | ClassDiagram) & (-GameMenu | ClassDiagram) & (-ClassDiagram | GameSprite) & (-ClassDiagram | Board) & (-ClassDiagram | Menu) & (-ClassDiagram | GameMenu) & (-SpritePair | GameSprite) & (-Rectangle | GameSprite) & (-GameSprite_3 | GameSprite) & (-GameSprite | Rectangle) & (-GameSprite | GameSprite_3) & (-Size | Rectangle) & (-Point | Rectangle) & (-Rectangle | Size) & (-Rectangle | Point) & (-MovableSprite | GameSprite_3) & (-StationarySprite | GameSprite_3) & (-GameSprite_3 | MovableSprite | StationarySprite) & (-Velocity | MovableSprite) & (-MovableSprite_2 | MovableSprite) & (-MovableSprite | Velocity) & (-MovableSprite | MovableSprite_2) & (-Paddle | MovableSprite_2) & (-Puck | MovableSprite_2) & (-BowlingBall | MovableSprite_2) & (-BowlingPin | MovableSprite_2) & (-MovableSprite_2 | Paddle | Puck | BowlingBall | BowlingPin) & (-TopPaddle | Paddle) & (-BottomPaddle | Paddle) & (-Paddle | TopPaddle | BottomPaddle) & (-Wall | StationarySprite) & (-StationarySprite_2 | StationarySprite) & (-StationarySprite | StationarySprite_2) & (-Leftpong | Wall) & (-Rightpont | Wall) & (-Leftbrickles | Wall) & (-Rightbrickles | Wall) & (-Wall | Leftpong | Rightpont | Leftbrickles | Rightbrickles) & (-Brick | StationarySprite_2) & (-BrickPile | StationarySprite_2) & (-Ceilingbrickles | StationarySprite_2) & (-Floorbrickles | StationarySprite_2) & (-Lane | StationarySprite_2) & (-Gutter | StationarySprite_2) & (-Edge | StationarySprite_2) & (-EndofAlley | StationarySprite_2) & (-RackofPins | StationarySprite_2) & (-ScoreBoard | StationarySprite_2) & (-Floorpong | StationarySprite_2) & (-Ceilingpong | StationarySprite_2) & (-DividingLine | StationarySprite_2) & (-StationarySprite_2 | Brick | BrickPile | Ceilingbrickles | Floorbrickles | Lane | Gutter | Edge | EndofAlley | RackofPins | ScoreBoard | Floorpong | Ceilingpong | DividingLine) & (-PongBoard | Board) & (-BricklesBoard | Board) & (-BowlingBoard | Board) & (-Board | PongBoard | BricklesBoard | BowlingBoard) & (-Pong | Menu) & (-Brickles | Menu) & (-Bowling | Menu) & (-Menu | Pong | Brickles | Bowling) & (-PongGameMenu | GameMenu) & (-BricklesGameMenu | GameMenu) & (-BowlingGameMenu | GameMenu) & (-GameMenu | PongGameMenu | BricklesGameMenu | BowlingGameMenu) & (Brickles | -PlayBrickles) & (-Brickles | PlayBrickles) & (-PlayPong | Pong) & (PlayPong | -Pong) & (Bowling | -PlayBowling) & (-Bowling | PlayBowling) & (Pong | -TopPaddle) & (-BottomPaddle | Pong) & (-Leftpong | Pong) & (Pong | -Rightpont) & (Pong | -ScoreBoard) & (-Floorpong | Pong) & (-Ceilingpong | Pong) & (-DividingLine | Pong) & (Pong | -PongBoard) & (Pong | -PongGameMenu) & (Bowling | -BowlingBoard) & (Bowling | -BowlingBall) & (Bowling | -BowlingPin) & (Bowling | -Lane) & (Bowling | -Gutter) & (Bowling | -Edge) & (Bowling | -EndofAlley) & (Bowling | -RackofPins) & (Bowling | -BowlingGameMenu) & (Brickles | -BricklesGameMenu) & (Brickles | -BricklesBoard) & (Brickles | -Leftbrickles) & (Brickles | -Rightbrickles) & (-BrickPile | Brickles) & (-Brick | Brickles) & (Brickles | -Ceilingbrickles) & (Brickles | -Floorbrickles) & (Brickles | -Pucksupply)